70
1 0 1
3 2 1
4 1 1
5 0 1
5 1 1
6 0 1
6 4 1
6 5 1
7 0 1
7 2 1
7 4 1
7 5 1
7 6 1
8 0 1
8 1 1
8 2 1
8 4 1
8 5 1
9 1 1
9 2 1
9 5 1
10 1 1
10 2 1
10 5 1
10 7 1
11 0 1
11 1 1
11 5 1
11 6 1
11 7 1
11 8 1
11 10 1
12 0 1
12 1 1
12 2 1
12 3 1
12 4 1
12 6 1
12 7 1
12 9 1
12 10 1
13 4 1
13 6 1
13 8 1
13 9 1
14 0 1
14 1 1
14 2 1
14 4 1
14 5 1
14 7 1
14 9 1
14 10 1
14 11 1
14 12 1
14 13 1
15 3 1
15 8 1
15 10 1
15 11 1
15 14 1
16 0 1
16 2 1
16 4 1
16 6 1
16 7 1
16 9 1
16 13 1
17 0 1
17 1 1
17 2 1
17 3 1
17 5 1
17 9 1
17 11 1
17 12 1
18 1 1
18 2 1
18 3 1
18 4 1
18 5 1
18 6 1
18 8 1
18 11 1
18 12 1
18 13 1
19 0 1
19 1 1
19 4 1
19 7 1
19 10 1
19 12 1
19 15 1
19 16 1
20 2 1
20 3 1
20 4 1
20 6 1
20 7 1
20 8 1
20 10 1
20 11 1
20 13 1
20 18 1
21 0 1
21 1 1
21 3 1
21 6 1
21 8 1
21 11 1
21 17 1
22 3 1
22 4 1
22 10 1
22 11 1
22 12 1
22 14 1
22 17 1
22 18 1
22 21 1
23 0 1
23 2 1
23 4 1
23 7 1
23 10 1
23 11 1
23 13 1
23 14 1
23 15 1
23 17 1
23 18 1
23 19 1
23 20 1
23 22 1
24 2 1
24 6 1
24 7 1
24 9 1
24 10 1
24 13 1
24 15 1
24 19 1
24 20 1
24 21 1
24 22 1
24 23 1
25 0 1
25 1 1
25 2 1
25 3 1
25 6 1
25 8 1
25 9 1
25 12 1
25 16 1
25 17 1
25 18 1
25 19 1
25 24 1
26 2 1
26 10 1
26 11 1
26 14 1
26 19 1
26 20 1
26 24 1
26 25 1
27 1 1
27 2 1
27 3 1
27 6 1
27 11 1
27 12 1
27 14 1
27 15 1
27 18 1
27 21 1
27 23 1
27 26 1
28 0 1
28 1 1
28 3 1
28 8 1
28 9 1
28 10 1
28 11 1
28 12 1
28 15 1
28 16 1
28 18 1
28 19 1
28 20 1
28 21 1
28 22 1
28 23 1
29 3 1
29 11 1
29 13 1
29 15 1
29 16 1
29 17 1
29 18 1
29 19 1
29 23 1
29 24 1
29 26 1
29 28 1
30 0 1
30 2 1
30 4 1
30 6 1
30 9 1
30 10 1
30 11 1
30 13 1
30 15 1
30 16 1
30 17 1
30 18 1
30 21 1
30 23 1
30 24 1
30 25 1
30 29 1
31 2 1
31 3 1
31 9 1
31 10 1
31 14 1
31 16 1
31 17 1
31 21 1
31 24 1
31 28 1
32 2 1
32 7 1
32 8 1
32 10 1
32 11 1
32 12 1
32 14 1
32 17 1
32 18 1
32 19 1
32 26 1
32 28 1
32 31 1
33 1 1
33 2 1
33 3 1
33 4 1
33 6 1
33 7 1
33 12 1
33 13 1
33 16 1
33 17 1
33 21 1
33 22 1
33 23 1
33 24 1
33 25 1
33 29 1
34 5 1
34 6 1
34 7 1
34 8 1
34 9 1
34 16 1
34 17 1
34 19 1
34 22 1
34 23 1
34 24 1
34 31 1
34 32 1
35 3 1
35 4 1
35 5 1
35 8 1
35 9 1
35 14 1
35 15 1
35 16 1
35 18 1
35 19 1
35 20 1
35 21 1
35 24 1
35 26 1
35 31 1
35 32 1
35 33 1
36 0 1
36 1 1
36 2 1
36 3 1
36 8 1
36 9 1
36 12 1
36 18 1
36 20 1
36 21 1
36 22 1
36 23 1
36 26 1
36 28 1
36 29 1
36 30 1
36 32 1
37 0 1
37 2 1
37 3 1
37 4 1
37 5 1
37 6 1
37 7 1
37 8 1
37 14 1
37 15 1
37 16 1
37 17 1
37 18 1
37 20 1
37 22 1
37 25 1
37 26 1
37 27 1
37 28 1
37 29 1
37 30 1
37 31 1
37 32 1
37 35 1
38 0 1
38 1 1
38 2 1
38 3 1
38 4 1
38 5 1
38 8 1
38 10 1
38 13 1
38 14 1
38 15 1
38 16 1
38 18 1
38 20 1
38 22 1
38 23 1
38 25 1
38 30 1
38 31 1
38 34 1
38 35 1
38 36 1
38 37 1
39 0 1
39 2 1
39 5 1
39 6 1
39 7 1
39 10 1
39 13 1
39 15 1
39 16 1
39 17 1
39 19 1
39 20 1
39 21 1
39 23 1
39 26 1
39 27 1
39 28 1
39 31 1
39 32 1
39 33 1
39 35 1
39 37 1
40 1 1
40 2 1
40 7 1
40 8 1
40 9 1
40 12 1
40 14 1
40 16 1
40 19 1
40 20 1
40 21 1
40 22 1
40 24 1
40 25 1
40 27 1
40 29 1
40 30 1
40 32 1
40 33 1
40 34 1
40 37 1
41 0 1
41 1 1
41 3 1
41 4 1
41 6 1
41 7 1
41 8 1
41 9 1
41 13 1
41 16 1
41 17 1
41 19 1
41 20 1
41 21 1
41 22 1
41 25 1
41 28 1
41 29 1
41 30 1
41 31 1
41 32 1
41 34 1
41 36 1
42 0 1
42 1 1
42 2 1
42 6 1
42 7 1
42 12 1
42 13 1
42 18 1
42 20 1
42 25 1
42 26 1
42 27 1
42 28 1
42 30 1
42 33 1
42 36 1
42 38 1
42 41 1
43 1 1
43 2 1
43 3 1
43 4 1
43 5 1
43 6 1
43 7 1
43 9 1
43 10 1
43 11 1
43 12 1
43 14 1
43 15 1
43 16 1
43 18 1
43 19 1
43 21 1
43 22 1
43 24 1
43 31 1
43 34 1
43 35 1
43 36 1
43 37 1
43 39 1
43 41 1
44 0 1
44 1 1
44 2 1
44 4 1
44 5 1
44 6 1
44 7 1
44 8 1
44 9 1
44 10 1
44 12 1
44 18 1
44 19 1
44 20 1
44 21 1
44 24 1
44 28 1
44 30 1
44 32 1
44 33 1
44 35 1
44 39 1
44 40 1
44 42 1
45 1 1
45 2 1
45 3 1
45 4 1
45 7 1
45 8 1
45 9 1
45 10 1
45 12 1
45 13 1
45 15 1
45 16 1
45 17 1
45 18 1
45 20 1
45 21 1
45 22 1
45 23 1
45 26 1
45 27 1
45 28 1
45 29 1
45 34 1
45 37 1
45 38 1
45 39 1
45 41 1
45 42 1
45 43 1
45 44 1
46 2 1
46 4 1
46 9 1
46 10 1
46 14 1
46 15 1
46 16 1
46 20 1
46 23 1
46 24 1
46 26 1
46 27 1
46 28 1
46 31 1
46 33 1
46 34 1
46 36 1
46 37 1
46 38 1
46 42 1
46 45 1
47 7 1
47 8 1
47 10 1
47 12 1
47 14 1
47 15 1
47 16 1
47 18 1
47 19 1
47 21 1
47 22 1
47 23 1
47 27 1
47 31 1
47 32 1
47 34 1
47 35 1
47 36 1
47 37 1
47 39 1
47 40 1
47 44 1
47 46 1
48 0 1
48 3 1
48 4 1
48 7 1
48 8 1
48 10 1
48 14 1
48 15 1
48 20 1
48 21 1
48 22 1
48 23 1
48 27 1
48 31 1
48 32 1
48 35 1
48 38 1
48 40 1
48 43 1
48 45 1
49 0 1
49 1 1
49 2 1
49 5 1
49 6 1
49 7 1
49 8 1
49 9 1
49 12 1
49 15 1
49 16 1
49 19 1
49 20 1
49 21 1
49 28 1
49 29 1
49 33 1
49 34 1
49 36 1
49 41 1
49 44 1
49 47 1
50 3 1
50 4 1
50 8 1
50 9 1
50 10 1
50 13 1
50 14 1
50 16 1
50 19 1
50 20 1
50 21 1
50 22 1
50 23 1
50 29 1
50 30 1
50 35 1
50 36 1
50 39 1
50 40 1
50 41 1
50 42 1
50 45 1
50 47 1
50 49 1
51 2 1
51 3 1
51 5 1
51 6 1
51 11 1
51 13 1
51 14 1
51 16 1
51 19 1
51 22 1
51 23 1
51 24 1
51 28 1
51 31 1
51 32 1
51 33 1
51 34 1
51 36 1
51 38 1
51 40 1
51 42 1
51 44 1
51 45 1
51 46 1
51 47 1
51 48 1
51 50 1
52 1 1
52 3 1
52 4 1
52 9 1
52 10 1
52 11 1
52 12 1
52 15 1
52 16 1
52 17 1
52 20 1
52 24 1
52 27 1
52 29 1
52 30 1
52 32 1
52 34 1
52 37 1
52 42 1
52 45 1
52 46 1
52 49 1
52 50 1
53 0 1
53 1 1
53 2 1
53 9 1
53 11 1
53 12 1
53 13 1
53 18 1
53 22 1
53 24 1
53 26 1
53 27 1
53 29 1
53 30 1
53 31 1
53 33 1
53 37 1
53 40 1
53 42 1
53 43 1
53 44 1
53 45 1
53 46 1
53 49 1
53 50 1
54 2 1
54 5 1
54 6 1
54 7 1
54 9 1
54 11 1
54 13 1
54 14 1
54 15 1
54 18 1
54 21 1
54 30 1
54 32 1
54 36 1
54 42 1
54 43 1
54 44 1
54 45 1
54 47 1
54 49 1
55 1 1
55 2 1
55 4 1
55 13 1
55 15 1
55 16 1
55 19 1
55 20 1
55 23 1
55 26 1
55 27 1
55 29 1
55 30 1
55 32 1
55 35 1
55 36 1
55 38 1
55 39 1
55 42 1
55 43 1
55 45 1
55 48 1
55 49 1
55 51 1
55 53 1
55 54 1
56 0 1
56 4 1
56 5 1
56 6 1
56 8 1
56 10 1
56 11 1
56 14 1
56 19 1
56 22 1
56 24 1
56 25 1
56 27 1
56 30 1
56 32 1
56 34 1
56 35 1
56 37 1
56 39 1
56 40 1
56 41 1
56 43 1
56 44 1
56 45 1
56 47 1
56 49 1
56 54 1
56 55 1
57 2 1
57 3 1
57 6 1
57 7 1
57 9 1
57 10 1
57 11 1
57 14 1
57 22 1
57 23 1
57 24 1
57 25 1
57 26 1
57 27 1
57 28 1
57 34 1
57 35 1
57 36 1
57 43 1
57 46 1
57 49 1
57 53 1
58 1 1
58 2 1
58 3 1
58 6 1
58 7 1
58 8 1
58 9 1
58 10 1
58 14 1
58 16 1
58 20 1
58 21 1
58 22 1
58 25 1
58 26 1
58 27 1
58 28 1
58 32 1
58 33 1
58 35 1
58 36 1
58 37 1
58 39 1
58 40 1
58 41 1
58 42 1
58 44 1
58 45 1
58 47 1
58 49 1
58 51 1
58 53 1
58 55 1
59 0 1
59 1 1
59 2 1
59 7 1
59 8 1
59 9 1
59 10 1
59 11 1
59 12 1
59 16 1
59 17 1
59 20 1
59 23 1
59 25 1
59 26 1
59 27 1
59 29 1
59 30 1
59 32 1
59 33 1
59 37 1
59 40 1
59 41 1
59 47 1
59 49 1
59 50 1
59 53 1
59 56 1
59 57 1
60 2 1
60 3 1
60 5 1
60 8 1
60 9 1
60 11 1
60 12 1
60 15 1
60 17 1
60 19 1
60 20 1
60 22 1
60 23 1
60 28 1
60 29 1
60 30 1
60 32 1
60 34 1
60 38 1
60 41 1
60 42 1
60 44 1
60 46 1
60 49 1
60 50 1
60 52 1
60 53 1
60 55 1
60 56 1
60 58 1
61 0 1
61 2 1
61 3 1
61 4 1
61 7 1
61 8 1
61 9 1
61 11 1
61 12 1
61 14 1
61 17 1
61 20 1
61 22 1
61 24 1
61 27 1
61 28 1
61 30 1
61 31 1
61 32 1
61 35 1
61 36 1
61 37 1
61 39 1
61 41 1
61 43 1
61 44 1
61 45 1
61 46 1
61 47 1
61 48 1
61 51 1
61 52 1
61 53 1
61 54 1
61 58 1
61 60 1
62 2 1
62 3 1
62 4 1
62 8 1
62 11 1
62 18 1
62 19 1
62 23 1
62 24 1
62 25 1
62 28 1
62 30 1
62 31 1
62 34 1
62 36 1
62 37 1
62 38 1
62 39 1
62 41 1
62 43 1
62 46 1
62 48 1
62 50 1
62 59 1
62 60 1
62 61 1
63 1 1
63 2 1
63 5 1
63 11 1
63 12 1
63 15 1
63 16 1
63 17 1
63 18 1
63 23 1
63 24 1
63 25 1
63 26 1
63 27 1
63 30 1
63 31 1
63 37 1
63 39 1
63 43 1
63 45 1
63 47 1
63 48 1
63 51 1
63 52 1
63 53 1
63 54 1
63 55 1
63 56 1
63 57 1
63 59 1
63 60 1
63 62 1
64 0 1
64 1 1
64 4 1
64 11 1
64 14 1
64 15 1
64 17 1
64 19 1
64 22 1
64 24 1
64 25 1
64 28 1
64 29 1
64 30 1
64 31 1
64 32 1
64 34 1
64 35 1
64 37 1
64 38 1
64 39 1
64 42 1
64 43 1
64 44 1
64 45 1
64 47 1
64 48 1
64 52 1
64 53 1
64 54 1
64 55 1
64 56 1
64 57 1
64 58 1
64 59 1
65 0 1
65 2 1
65 8 1
65 9 1
65 10 1
65 11 1
65 12 1
65 14 1
65 18 1
65 22 1
65 23 1
65 27 1
65 31 1
65 33 1
65 35 1
65 37 1
65 39 1
65 42 1
65 43 1
65 47 1
65 52 1
65 54 1
65 57 1
65 58 1
65 59 1
65 61 1
65 62 1
65 63 1
66 0 1
66 1 1
66 2 1
66 3 1
66 4 1
66 7 1
66 9 1
66 13 1
66 15 1
66 17 1
66 19 1
66 21 1
66 24 1
66 25 1
66 26 1
66 30 1
66 33 1
66 34 1
66 35 1
66 37 1
66 40 1
66 43 1
66 46 1
66 47 1
66 49 1
66 55 1
66 56 1
66 58 1
66 60 1
66 61 1
66 62 1
66 63 1
67 3 1
67 5 1
67 8 1
67 9 1
67 10 1
67 12 1
67 13 1
67 14 1
67 15 1
67 16 1
67 17 1
67 18 1
67 19 1
67 20 1
67 21 1
67 22 1
67 25 1
67 27 1
67 28 1
67 31 1
67 32 1
67 36 1
67 37 1
67 38 1
67 39 1
67 42 1
67 44 1
67 47 1
67 48 1
67 52 1
67 53 1
67 54 1
67 56 1
67 57 1
67 58 1
67 65 1
67 66 1
68 0 1
68 2 1
68 3 1
68 4 1
68 6 1
68 7 1
68 8 1
68 10 1
68 14 1
68 15 1
68 16 1
68 17 1
68 22 1
68 23 1
68 28 1
68 30 1
68 31 1
68 33 1
68 34 1
68 36 1
68 41 1
68 42 1
68 44 1
68 45 1
68 46 1
68 47 1
68 48 1
68 49 1
68 51 1
68 52 1
68 54 1
68 55 1
68 56 1
68 59 1
68 60 1
68 61 1
68 62 1
68 64 1
68 65 1
68 67 1
69 0 1
69 1 1
69 4 1
69 8 1
69 9 1
69 11 1
69 12 1
69 16 1
69 18 1
69 19 1
69 20 1
69 21 1
69 22 1
69 24 1
69 25 1
69 28 1
69 30 1
69 31 1
69 32 1
69 33 1
69 37 1
69 38 1
69 40 1
69 42 1
69 43 1
69 45 1
69 50 1
69 52 1
69 54 1
69 56 1
69 57 1
69 58 1
69 60 1
69 61 1
